p cnf 960 2464
51 -2 -1 0
-51 2 0
-51 1 0
52 -51 -3 0
-52 51 0
-52 3 0
53 -694 -695 0
-53 694 0
-53 695 0
54 -53 -696 0
-54 53 0
-54 696 0
55 -697 -698 0
-55 697 0
-55 698 0
56 -699 -5 0
-56 699 0
-56 5 0
57 -56 -700 0
-57 56 0
-57 700 0
58 -701 -55 0
-58 701 0
-58 55 0
59 -9 -8 0
-59 9 0
-59 8 0
60 -59 -10 0
-60 59 0
-60 10 0
61 -702 -58 0
-61 702 0
-61 58 0
62 -12 -703 0
-62 12 0
-62 703 0
63 -62 -13 0
-63 62 0
-63 13 0
64 -704 -61 0
-64 704 0
-64 61 0
65 -705 -4 0
-65 705 0
-65 4 0
66 -65 -706 0
-66 65 0
-66 706 0
67 -707 -64 0
-67 707 0
-67 64 0
68 -708 -709 0
-68 708 0
-68 709 0
69 -68 -15 0
-69 68 0
-69 15 0
70 -710 -67 0
-70 710 0
-70 67 0
71 -711 -16 0
-71 711 0
-71 16 0
72 -71 -18 0
-72 71 0
-72 18 0
73 -712 -70 0
-73 712 0
-73 70 0
74 -696 -4 0
-74 696 0
-74 4 0
75 -74 -19 0
-75 74 0
-75 19 0
76 -713 -73 0
-76 713 0
-76 73 0
77 -20 -14 0
-77 20 0
-77 14 0
78 -77 -714 0
-78 77 0
-78 714 0
79 -715 -76 0
-79 715 0
-79 76 0
80 -23 -716 0
-80 23 0
-80 716 0
81 -80 -717 0
-81 80 0
-81 717 0
82 -718 -79 0
-82 718 0
-82 79 0
83 -21 -703 0
-83 21 0
-83 703 0
84 -83 -719 0
-84 83 0
-84 719 0
85 -720 -82 0
-85 720 0
-85 82 0
86 -26 -16 0
-86 26 0
-86 16 0
87 -86 -19 0
-87 86 0
-87 19 0
88 -721 -85 0
-88 721 0
-88 85 0
89 -722 -696 0
-89 722 0
-89 696 0
90 -89 -25 0
-90 89 0
-90 25 0
91 -723 -88 0
-91 723 0
-91 88 0
92 -724 -709 0
-92 724 0
-92 709 0
93 -92 -696 0
-93 92 0
-93 696 0
94 -725 -91 0
-94 725 0
-94 91 0
95 -726 -21 0
-95 726 0
-95 21 0
96 -95 -727 0
-96 95 0
-96 727 0
97 -728 -94 0
-97 728 0
-97 94 0
98 -22 -711 0
-98 22 0
-98 711 0
99 -98 -9 0
-99 98 0
-99 9 0
100 -729 -97 0
-100 729 0
-100 97 0
101 -730 -731 0
-101 730 0
-101 731 0
102 -101 -6 0
-102 101 0
-102 6 0
103 -732 -100 0
-103 732 0
-103 100 0
104 -32 -14 0
-104 32 0
-104 14 0
105 -104 -33 0
-105 104 0
-105 33 0
106 -733 -103 0
-106 733 0
-106 103 0
107 -734 -33 0
-107 734 0
-107 33 0
108 -107 -25 0
-108 107 0
-108 25 0
109 -735 -106 0
-109 735 0
-109 106 0
110 -736 -6 0
-110 736 0
-110 6 0
111 -110 -737 0
-111 110 0
-111 737 0
112 -738 -109 0
-112 738 0
-112 109 0
113 -711 -4 0
-113 711 0
-113 4 0
114 -113 -36 0
-114 113 0
-114 36 0
115 -739 -112 0
-115 739 0
-115 112 0
116 -740 -15 0
-116 740 0
-116 15 0
117 -116 -700 0
-117 116 0
-117 700 0
118 -741 -115 0
-118 741 0
-118 115 0
119 -37 -29 0
-119 37 0
-119 29 0
120 -119 -742 0
-120 119 0
-120 742 0
121 -743 -118 0
-121 743 0
-121 118 0
122 -744 -6 0
-122 744 0
-122 6 0
123 -122 -745 0
-123 122 0
-123 745 0
124 -746 -121 0
-124 746 0
-124 121 0
125 -722 -13 0
-125 722 0
-125 13 0
126 -125 -30 0
-126 125 0
-126 30 0
127 -747 -124 0
-127 747 0
-127 124 0
128 -736 -8 0
-128 736 0
-128 8 0
129 -128 -41 0
-129 128 0
-129 41 0
130 -748 -127 0
-130 748 0
-130 127 0
131 -33 -15 0
-131 33 0
-131 15 0
132 -131 -10 0
-132 131 0
-132 10 0
133 -749 -130 0
-133 749 0
-133 130 0
134 -744 -28 0
-134 744 0
-134 28 0
135 -134 -15 0
-135 134 0
-135 15 0
136 -750 -133 0
-136 750 0
-136 133 0
137 -694 -2 0
-137 694 0
-137 2 0
138 -137 -724 0
-138 137 0
-138 724 0
139 -751 -136 0
-139 751 0
-139 136 0
140 -705 -9 0
-140 705 0
-140 9 0
141 -140 -7 0
-141 140 0
-141 7 0
142 -752 -139 0
-142 752 0
-142 139 0
143 -736 -717 0
-143 736 0
-143 717 0
144 -143 -41 0
-144 143 0
-144 41 0
145 -753 -142 0
-145 753 0
-145 142 0
146 -754 -8 0
-146 754 0
-146 8 0
147 -146 -42 0
-147 146 0
-147 42 0
148 -755 -145 0
-148 755 0
-148 145 0
149 -756 -35 0
-149 756 0
-149 35 0
150 -149 -757 0
-150 149 0
-150 757 0
151 -758 -148 0
-151 758 0
-151 148 0
152 -759 -695 0
-152 759 0
-152 695 0
153 -152 -45 0
-153 152 0
-153 45 0
154 -760 -151 0
-154 760 0
-154 151 0
155 -727 -740 0
-155 727 0
-155 740 0
156 -155 -25 0
-156 155 0
-156 25 0
157 -761 -154 0
-157 761 0
-157 154 0
158 -43 -18 0
-158 43 0
-158 18 0
159 -158 -5 0
-159 158 0
-159 5 0
160 -762 -157 0
-160 762 0
-160 157 0
161 -763 -740 0
-161 763 0
-161 740 0
162 -161 -764 0
-162 161 0
-162 764 0
163 -765 -160 0
-163 765 0
-163 160 0
164 -46 -694 0
-164 46 0
-164 694 0
165 -164 -696 0
-165 164 0
-165 696 0
166 -766 -163 0
-166 766 0
-166 163 0
167 -737 -708 0
-167 737 0
-167 708 0
168 -167 -764 0
-168 167 0
-168 764 0
169 -767 -166 0
-169 767 0
-169 166 0
170 -768 -694 0
-170 768 0
-170 694 0
171 -170 -756 0
-171 170 0
-171 756 0
172 -769 -169 0
-172 769 0
-172 169 0
173 -744 -726 0
-173 744 0
-173 726 0
174 -173 -30 0
-174 173 0
-174 30 0
175 -770 -172 0
-175 770 0
-175 172 0
176 -45 -742 0
-176 45 0
-176 742 0
177 -176 -25 0
-177 176 0
-177 25 0
178 -771 -175 0
-178 771 0
-178 175 0
179 -772 -724 0
-179 772 0
-179 724 0
180 -179 -773 0
-180 179 0
-180 773 0
181 -774 -178 0
-181 774 0
-181 178 0
182 -768 -775 0
-182 768 0
-182 775 0
183 -182 -700 0
-183 182 0
-183 700 0
184 -776 -181 0
-184 776 0
-184 181 0
185 -36 -27 0
-185 36 0
-185 27 0
186 -185 -18 0
-186 185 0
-186 18 0
187 -777 -184 0
-187 777 0
-187 184 0
188 -45 -37 0
-188 45 0
-188 37 0
189 -188 -778 0
-189 188 0
-189 778 0
190 -779 -187 0
-190 779 0
-190 187 0
191 -29 -15 0
-191 29 0
-191 15 0
192 -191 -48 0
-192 191 0
-192 48 0
193 -780 -190 0
-193 780 0
-193 190 0
194 -736 -5 0
-194 736 0
-194 5 0
195 -194 -40 0
-195 194 0
-195 40 0
196 -781 -193 0
-196 781 0
-196 193 0
197 -782 -783 0
-197 782 0
-197 783 0
198 -197 -12 0
-198 197 0
-198 12 0
199 -784 -196 0
-199 784 0
-199 196 0
200 -778 -1 0
-200 778 0
-200 1 0
201 -200 -41 0
-201 200 0
-201 41 0
202 -785 -199 0
-202 785 0
-202 199 0
203 -49 -744 0
-203 49 0
-203 744 0
204 -203 -764 0
-204 203 0
-204 764 0
205 -786 -202 0
-205 786 0
-205 202 0
206 -757 -1 0
-206 757 0
-206 1 0
207 -206 -15 0
-207 206 0
-207 15 0
208 -787 -205 0
-208 787 0
-208 205 0
209 -706 -8 0
-209 706 0
-209 8 0
210 -209 -757 0
-210 209 0
-210 757 0
211 -788 -208 0
-211 788 0
-211 208 0
212 -39 -699 0
-212 39 0
-212 699 0
213 -212 -21 0
-213 212 0
-213 21 0
214 -789 -211 0
-214 789 0
-214 211 0
215 -736 -17 0
-215 736 0
-215 17 0
216 -215 -33 0
-216 215 0
-216 33 0
217 -790 -214 0
-217 790 0
-217 214 0
218 -45 -26 0
-218 45 0
-218 26 0
219 -218 -48 0
-219 218 0
-219 48 0
220 -791 -217 0
-220 791 0
-220 217 0
221 -740 -699 0
-221 740 0
-221 699 0
222 -221 -726 0
-222 221 0
-222 726 0
223 -792 -220 0
-223 792 0
-223 220 0
224 -703 -696 0
-224 703 0
-224 696 0
225 -224 -773 0
-225 224 0
-225 773 0
226 -793 -223 0
-226 793 0
-226 223 0
227 -794 -2 0
-227 794 0
-227 2 0
228 -227 -30 0
-228 227 0
-228 30 0
229 -795 -226 0
-229 795 0
-229 226 0
230 -794 -775 0
-230 794 0
-230 775 0
231 -230 -696 0
-231 230 0
-231 696 0
232 -796 -229 0
-232 796 0
-232 229 0
233 -37 -22 0
-233 37 0
-233 22 0
234 -233 -48 0
-234 233 0
-234 48 0
235 -797 -232 0
-235 797 0
-235 232 0
236 -756 -734 0
-236 756 0
-236 734 0
237 -236 -28 0
-237 236 0
-237 28 0
238 -798 -235 0
-238 798 0
-238 235 0
239 -28 -27 0
-239 28 0
-239 27 0
240 -239 -18 0
-240 239 0
-240 18 0
241 -799 -238 0
-241 799 0
-241 238 0
242 -716 -706 0
-242 716 0
-242 706 0
243 -242 -30 0
-243 242 0
-243 30 0
244 -800 -241 0
-244 800 0
-244 241 0
245 -36 -11 0
-245 36 0
-245 11 0
246 -245 -41 0
-246 245 0
-246 41 0
247 -801 -244 0
-247 801 0
-247 244 0
248 -737 -699 0
-248 737 0
-248 699 0
249 -248 -7 0
-249 248 0
-249 7 0
250 -802 -247 0
-250 802 0
-250 247 0
251 -33 -2 0
-251 33 0
-251 2 0
252 -251 -25 0
-252 251 0
-252 25 0
253 -803 -250 0
-253 803 0
-253 250 0
254 -35 -32 0
-254 35 0
-254 32 0
255 -254 -745 0
-255 254 0
-255 745 0
256 -804 -253 0
-256 804 0
-256 253 0
257 -716 -14 0
-257 716 0
-257 14 0
258 -257 -5 0
-258 257 0
-258 5 0
259 -805 -256 0
-259 805 0
-259 256 0
260 -806 -2 0
-260 806 0
-260 2 0
261 -260 -754 0
-261 260 0
-261 754 0
262 -807 -259 0
-262 807 0
-262 259 0
263 -22 -18 0
-263 22 0
-263 18 0
264 -263 -717 0
-264 263 0
-264 717 0
265 -808 -262 0
-265 808 0
-265 262 0
266 -44 -10 0
-266 44 0
-266 10 0
267 -266 -40 0
-267 266 0
-267 40 0
268 -809 -265 0
-268 809 0
-268 265 0
269 -95 -10 0
-269 95 0
-269 10 0
270 -810 -268 0
-270 810 0
-270 268 0
271 -35 -34 0
-271 35 0
-271 34 0
272 -271 -773 0
-272 271 0
-272 773 0
273 -811 -270 0
-273 811 0
-273 270 0
274 -260 -38 0
-274 260 0
-274 38 0
275 -812 -273 0
-275 812 0
-275 273 0
276 -36 -15 0
-276 36 0
-276 15 0
277 -276 -742 0
-277 276 0
-277 742 0
278 -813 -275 0
-278 813 0
-278 275 0
279 -814 -40 0
-279 814 0
-279 40 0
280 -279 -772 0
-280 279 0
-280 772 0
281 -815 -278 0
-281 815 0
-281 278 0
282 -759 -20 0
-282 759 0
-282 20 0
283 -282 -714 0
-283 282 0
-283 714 0
284 -816 -281 0
-284 816 0
-284 281 0
285 -775 -708 0
-285 775 0
-285 708 0
286 -285 -772 0
-286 285 0
-286 772 0
287 -817 -284 0
-287 817 0
-287 284 0
288 -46 -756 0
-288 46 0
-288 756 0
289 -288 -25 0
-289 288 0
-289 25 0
290 -818 -287 0
-290 818 0
-290 287 0
291 -806 -730 0
-291 806 0
-291 730 0
292 -291 -21 0
-292 291 0
-292 21 0
293 -819 -290 0
-293 819 0
-293 290 0
294 -27 -14 0
-294 27 0
-294 14 0
295 -294 -772 0
-295 294 0
-295 772 0
296 -820 -293 0
-296 820 0
-296 293 0
297 -288 -19 0
-297 288 0
-297 19 0
298 -821 -296 0
-298 821 0
-298 296 0
299 -26 -5 0
-299 26 0
-299 5 0
300 -299 -48 0
-300 299 0
-300 48 0
301 -822 -298 0
-301 822 0
-301 298 0
302 -705 -783 0
-302 705 0
-302 783 0
303 -302 -7 0
-303 302 0
-303 7 0
304 -823 -301 0
-304 823 0
-304 301 0
305 -756 -8 0
-305 756 0
-305 8 0
306 -305 -6 0
-306 305 0
-306 6 0
307 -824 -304 0
-307 824 0
-307 304 0
308 -43 -711 0
-308 43 0
-308 711 0
309 -308 -825 0
-309 308 0
-309 825 0
310 -826 -307 0
-310 826 0
-310 307 0
311 -37 -34 0
-311 37 0
-311 34 0
312 -311 -28 0
-312 311 0
-312 28 0
313 -827 -310 0
-313 827 0
-313 310 0
314 -236 -754 0
-314 236 0
-314 754 0
315 -828 -313 0
-315 828 0
-315 313 0
316 -716 -731 0
-316 716 0
-316 731 0
317 -316 -772 0
-317 316 0
-317 772 0
318 -829 -315 0
-318 829 0
-318 315 0
319 -39 -20 0
-319 39 0
-319 20 0
320 -319 -15 0
-320 319 0
-320 15 0
321 -830 -318 0
-321 830 0
-321 318 0
322 -737 -4 0
-322 737 0
-322 4 0
323 -322 -814 0
-323 322 0
-323 814 0
324 -831 -321 0
-324 831 0
-324 321 0
325 -49 -1 0
-325 49 0
-325 1 0
326 -325 -45 0
-326 325 0
-326 45 0
327 -832 -324 0
-327 832 0
-327 324 0
328 -814 -26 0
-328 814 0
-328 26 0
329 -328 -21 0
-329 328 0
-329 21 0
330 -833 -327 0
-330 833 0
-330 327 0
331 -782 -9 0
-331 782 0
-331 9 0
332 -331 -29 0
-332 331 0
-332 29 0
333 -834 -330 0
-333 834 0
-333 330 0
334 -26 -709 0
-334 26 0
-334 709 0
335 -334 -41 0
-335 334 0
-335 41 0
336 -835 -333 0
-336 835 0
-336 333 0
337 -825 -33 0
-337 825 0
-337 33 0
338 -337 -23 0
-338 337 0
-338 23 0
339 -836 -336 0
-339 836 0
-339 336 0
340 -782 -694 0
-340 782 0
-340 694 0
341 -340 -714 0
-341 340 0
-341 714 0
342 -837 -339 0
-342 837 0
-342 339 0
343 -782 -838 0
-343 782 0
-343 838 0
344 -343 -700 0
-344 343 0
-344 700 0
345 -839 -342 0
-345 839 0
-345 342 0
346 -742 -11 0
-346 742 0
-346 11 0
347 -346 -10 0
-347 346 0
-347 10 0
348 -840 -345 0
-348 840 0
-348 345 0
349 -27 -708 0
-349 27 0
-349 708 0
350 -349 -41 0
-350 349 0
-350 41 0
351 -841 -348 0
-351 841 0
-351 348 0
352 -705 -8 0
-352 705 0
-352 8 0
353 -352 -38 0
-353 352 0
-353 38 0
354 -842 -351 0
-354 842 0
-354 351 0
355 -28 -9 0
-355 28 0
-355 9 0
356 -355 -20 0
-356 355 0
-356 20 0
357 -843 -354 0
-357 843 0
-357 354 0
358 -794 -39 0
-358 794 0
-358 39 0
359 -358 -844 0
-359 358 0
-359 844 0
360 -845 -357 0
-360 845 0
-360 357 0
361 -736 -30 0
-361 736 0
-361 30 0
362 -361 -7 0
-362 361 0
-362 7 0
363 -846 -360 0
-363 846 0
-363 360 0
364 -716 -15 0
-364 716 0
-364 15 0
365 -364 -24 0
-365 364 0
-365 24 0
366 -847 -363 0
-366 847 0
-366 363 0
367 -17 -731 0
-367 17 0
-367 731 0
368 -367 -7 0
-368 367 0
-368 7 0
369 -848 -366 0
-369 848 0
-369 366 0
370 -730 -2 0
-370 730 0
-370 2 0
371 -370 -25 0
-371 370 0
-371 25 0
372 -849 -369 0
-372 849 0
-372 369 0
373 -39 -35 0
-373 39 0
-373 35 0
374 -373 -23 0
-374 373 0
-374 23 0
375 -850 -372 0
-375 850 0
-375 372 0
376 -775 -15 0
-376 775 0
-376 15 0
377 -376 -30 0
-377 376 0
-377 30 0
378 -851 -375 0
-378 851 0
-378 375 0
379 -699 -3 0
-379 699 0
-379 3 0
380 -379 -7 0
-380 379 0
-380 7 0
381 -852 -378 0
-381 852 0
-381 378 0
382 -21 -731 0
-382 21 0
-382 731 0
383 -382 -25 0
-383 382 0
-383 25 0
384 -853 -381 0
-384 853 0
-384 381 0
385 -119 -700 0
-385 119 0
-385 700 0
386 -854 -384 0
-386 854 0
-386 384 0
387 -855 -31 0
-387 855 0
-387 31 0
388 -387 -23 0
-388 387 0
-388 23 0
389 -856 -386 0
-389 856 0
-389 386 0
390 -763 -15 0
-390 763 0
-390 15 0
391 -390 -742 0
-391 390 0
-391 742 0
392 -857 -389 0
-392 857 0
-392 389 0
393 -41 -4 0
-393 41 0
-393 4 0
394 -393 -42 0
-394 393 0
-394 42 0
395 -858 -392 0
-395 858 0
-395 392 0
396 -855 -699 0
-396 855 0
-396 699 0
397 -396 -844 0
-397 396 0
-397 844 0
398 -859 -395 0
-398 859 0
-398 395 0
399 -37 -711 0
-399 37 0
-399 711 0
400 -399 -21 0
-400 399 0
-400 21 0
401 -860 -398 0
-401 860 0
-401 398 0
402 -45 -861 0
-402 45 0
-402 861 0
403 -402 -42 0
-403 402 0
-403 42 0
404 -862 -401 0
-404 862 0
-404 401 0
405 -50 -730 0
-405 50 0
-405 730 0
406 -405 -772 0
-406 405 0
-406 772 0
407 -863 -404 0
-407 863 0
-407 404 0
408 -695 -1 0
-408 695 0
-408 1 0
409 -408 -719 0
-409 408 0
-409 719 0
410 -864 -407 0
-410 864 0
-410 407 0
411 -28 -731 0
-411 28 0
-411 731 0
412 -411 -726 0
-412 411 0
-412 726 0
413 -865 -410 0
-413 865 0
-413 410 0
414 -49 -13 0
-414 49 0
-414 13 0
415 -414 -40 0
-415 414 0
-415 40 0
416 -866 -413 0
-416 866 0
-416 413 0
417 -726 -9 0
-417 726 0
-417 9 0
418 -417 -40 0
-418 417 0
-418 40 0
419 -867 -416 0
-419 867 0
-419 416 0
420 -714 -844 0
-420 714 0
-420 844 0
421 -420 -719 0
-421 420 0
-421 719 0
422 -868 -419 0
-422 868 0
-422 419 0
423 -768 -13 0
-423 768 0
-423 13 0
424 -423 -30 0
-424 423 0
-424 30 0
425 -869 -422 0
-425 869 0
-425 422 0
426 -734 -731 0
-426 734 0
-426 731 0
427 -426 -861 0
-427 426 0
-427 861 0
428 -870 -425 0
-428 870 0
-428 425 0
429 -48 -3 0
-429 48 0
-429 3 0
430 -429 -41 0
-430 429 0
-430 41 0
431 -871 -428 0
-431 871 0
-431 428 0
432 -34 -31 0
-432 34 0
-432 31 0
433 -432 -737 0
-433 432 0
-433 737 0
434 -872 -431 0
-434 872 0
-434 431 0
435 -782 -703 0
-435 782 0
-435 703 0
436 -435 -706 0
-436 435 0
-436 706 0
437 -873 -434 0
-437 873 0
-437 434 0
438 -756 -825 0
-438 756 0
-438 825 0
439 -438 -706 0
-439 438 0
-439 706 0
440 -874 -437 0
-440 874 0
-440 437 0
441 -50 -44 0
-441 50 0
-441 44 0
442 -441 -48 0
-442 441 0
-442 48 0
443 -875 -440 0
-443 875 0
-443 440 0
444 -49 -44 0
-444 49 0
-444 44 0
445 -444 -763 0
-445 444 0
-445 763 0
446 -876 -443 0
-446 876 0
-446 443 0
447 -209 -38 0
-447 209 0
-447 38 0
448 -877 -446 0
-448 877 0
-448 446 0
449 -745 -861 0
-449 745 0
-449 861 0
450 -449 -772 0
-450 449 0
-450 772 0
451 -878 -448 0
-451 878 0
-451 448 0
452 -328 -714 0
-452 328 0
-452 714 0
453 -879 -451 0
-453 879 0
-453 451 0
454 -724 -23 0
-454 724 0
-454 23 0
455 -454 -38 0
-455 454 0
-455 38 0
456 -880 -453 0
-456 880 0
-456 453 0
457 -734 -711 0
-457 734 0
-457 711 0
458 -457 -23 0
-458 457 0
-458 23 0
459 -881 -456 0
-459 881 0
-459 456 0
460 -291 -706 0
-460 291 0
-460 706 0
461 -882 -459 0
-461 882 0
-461 459 0
462 -806 -775 0
-462 806 0
-462 775 0
463 -462 -700 0
-463 462 0
-463 700 0
464 -883 -461 0
-464 883 0
-464 461 0
465 -716 -757 0
-465 716 0
-465 757 0
466 -465 -696 0
-466 465 0
-466 696 0
467 -884 -464 0
-467 884 0
-467 464 0
468 -744 -37 0
-468 744 0
-468 37 0
469 -468 -814 0
-469 468 0
-469 814 0
470 -885 -467 0
-470 885 0
-470 467 0
471 -32 -731 0
-471 32 0
-471 731 0
472 -471 -861 0
-472 471 0
-472 861 0
473 -886 -470 0
-473 886 0
-473 470 0
474 -34 -28 0
-474 34 0
-474 28 0
475 -474 -39 0
-475 474 0
-475 39 0
476 -887 -473 0
-476 887 0
-476 473 0
477 -33 -737 0
-477 33 0
-477 737 0
478 -477 -42 0
-478 477 0
-478 42 0
479 -888 -476 0
-479 888 0
-479 476 0
480 -782 -17 0
-480 782 0
-480 17 0
481 -480 -45 0
-481 480 0
-481 45 0
482 -889 -479 0
-482 889 0
-482 479 0
483 -47 -783 0
-483 47 0
-483 783 0
484 -483 -12 0
-484 483 0
-484 12 0
485 -890 -482 0
-485 890 0
-485 482 0
486 -13 -844 0
-486 13 0
-486 844 0
487 -486 -48 0
-487 486 0
-487 48 0
488 -891 -485 0
-488 891 0
-488 485 0
489 -35 -8 0
-489 35 0
-489 8 0
490 -489 -24 0
-490 489 0
-490 24 0
491 -892 -488 0
-491 892 0
-491 488 0
492 -27 -754 0
-492 27 0
-492 754 0
493 -492 -21 0
-493 492 0
-493 21 0
494 -893 -491 0
-494 893 0
-494 491 0
495 -814 -10 0
-495 814 0
-495 10 0
496 -495 -7 0
-496 495 0
-496 7 0
497 -894 -494 0
-497 894 0
-497 494 0
498 -47 -22 0
-498 47 0
-498 22 0
499 -498 -25 0
-499 498 0
-499 25 0
500 -895 -497 0
-500 895 0
-500 497 0
501 -756 -12 0
-501 756 0
-501 12 0
502 -501 -724 0
-502 501 0
-502 724 0
503 -896 -500 0
-503 896 0
-503 500 0
504 -32 -724 0
-504 32 0
-504 724 0
505 -504 -699 0
-505 504 0
-505 699 0
506 -897 -503 0
-506 897 0
-506 503 0
507 -782 -705 0
-507 782 0
-507 705 0
508 -507 -772 0
-508 507 0
-508 772 0
509 -898 -506 0
-509 898 0
-509 506 0
510 -21 -14 0
-510 21 0
-510 14 0
511 -510 -42 0
-511 510 0
-511 42 0
512 -899 -509 0
-512 899 0
-512 509 0
513 -49 -3 0
-513 49 0
-513 3 0
514 -513 -814 0
-514 513 0
-514 814 0
515 -900 -512 0
-515 900 0
-515 512 0
516 -759 -11 0
-516 759 0
-516 11 0
517 -516 -41 0
-517 516 0
-517 41 0
518 -901 -515 0
-518 901 0
-518 515 0
519 -11 -783 0
-519 11 0
-519 783 0
520 -519 -18 0
-520 519 0
-520 18 0
521 -902 -518 0
-521 902 0
-521 518 0
522 -45 -726 0
-522 45 0
-522 726 0
523 -522 -30 0
-523 522 0
-523 30 0
524 -903 -521 0
-524 903 0
-524 521 0
525 -736 -10 0
-525 736 0
-525 10 0
526 -525 -30 0
-526 525 0
-526 30 0
527 -904 -524 0
-527 904 0
-527 524 0
528 -387 -41 0
-528 387 0
-528 41 0
529 -905 -527 0
-529 905 0
-529 527 0
530 -50 -737 0
-530 50 0
-530 737 0
531 -530 -764 0
-531 530 0
-531 764 0
532 -906 -529 0
-532 906 0
-532 529 0
533 -46 -695 0
-533 46 0
-533 695 0
534 -533 -740 0
-534 533 0
-534 740 0
535 -907 -532 0
-535 907 0
-535 532 0
536 -703 -783 0
-536 703 0
-536 783 0
537 -536 -772 0
-537 536 0
-537 772 0
538 -908 -535 0
-538 908 0
-538 535 0
539 -782 -4 0
-539 782 0
-539 4 0
540 -539 -855 0
-540 539 0
-540 855 0
541 -909 -538 0
-541 909 0
-541 538 0
542 -736 -838 0
-542 736 0
-542 838 0
543 -542 -39 0
-543 542 0
-543 39 0
544 -910 -541 0
-544 910 0
-544 541 0
545 -731 -5 0
-545 731 0
-545 5 0
546 -545 -29 0
-546 545 0
-546 29 0
547 -911 -544 0
-547 911 0
-547 544 0
548 -727 -844 0
-548 727 0
-548 844 0
549 -548 -7 0
-549 548 0
-549 7 0
550 -912 -547 0
-550 912 0
-550 547 0
551 -794 -806 0
-551 794 0
-551 806 0
552 -551 -50 0
-552 551 0
-552 50 0
553 -913 -550 0
-553 913 0
-553 550 0
554 -768 -12 0
-554 768 0
-554 12 0
555 -554 -744 0
-555 554 0
-555 744 0
556 -914 -553 0
-556 914 0
-556 553 0
557 -706 -2 0
-557 706 0
-557 2 0
558 -557 -15 0
-558 557 0
-558 15 0
559 -915 -556 0
-559 915 0
-559 556 0
560 -722 -731 0
-560 722 0
-560 731 0
561 -560 -7 0
-561 560 0
-561 7 0
562 -916 -559 0
-562 916 0
-562 559 0
563 -768 -731 0
-563 768 0
-563 731 0
564 -563 -42 0
-564 563 0
-564 42 0
565 -917 -562 0
-565 917 0
-565 562 0
566 -33 -731 0
-566 33 0
-566 731 0
567 -566 -23 0
-567 566 0
-567 23 0
568 -918 -565 0
-568 918 0
-568 565 0
569 -9 -783 0
-569 9 0
-569 783 0
570 -569 -39 0
-570 569 0
-570 39 0
571 -919 -568 0
-571 919 0
-571 568 0
572 -763 -695 0
-572 763 0
-572 695 0
573 -572 -15 0
-573 572 0
-573 15 0
574 -920 -571 0
-574 920 0
-574 571 0
575 -37 -23 0
-575 37 0
-575 23 0
576 -575 -719 0
-576 575 0
-576 719 0
577 -921 -574 0
-577 921 0
-577 574 0
578 -31 -764 0
-578 31 0
-578 764 0
579 -578 -38 0
-579 578 0
-579 38 0
580 -922 -577 0
-580 922 0
-580 577 0
581 -49 -694 0
-581 49 0
-581 694 0
582 -581 -45 0
-582 581 0
-582 45 0
583 -923 -580 0
-583 923 0
-583 580 0
584 -744 -695 0
-584 744 0
-584 695 0
585 -584 -3 0
-585 584 0
-585 3 0
586 -924 -583 0
-586 924 0
-586 583 0
587 -727 -29 0
-587 727 0
-587 29 0
588 -587 -25 0
-588 587 0
-588 25 0
589 -925 -586 0
-589 925 0
-589 586 0
590 -814 -838 0
-590 814 0
-590 838 0
591 -590 -40 0
-591 590 0
-591 40 0
592 -926 -589 0
-592 926 0
-592 589 0
593 -759 -2 0
-593 759 0
-593 2 0
594 -593 -33 0
-594 593 0
-594 33 0
595 -927 -592 0
-595 927 0
-595 592 0
596 -44 -740 0
-596 44 0
-596 740 0
597 -596 -21 0
-597 596 0
-597 21 0
598 -928 -595 0
-598 928 0
-598 595 0
599 -16 -8 0
-599 16 0
-599 8 0
600 -599 -703 0
-600 599 0
-600 703 0
601 -929 -598 0
-601 929 0
-601 598 0
602 -734 -775 0
-602 734 0
-602 775 0
603 -602 -41 0
-603 602 0
-603 41 0
604 -930 -601 0
-604 930 0
-604 601 0
605 -768 -711 0
-605 768 0
-605 711 0
606 -605 -745 0
-606 605 0
-606 745 0
607 -931 -604 0
-607 931 0
-607 604 0
608 -33 -694 0
-608 33 0
-608 694 0
609 -608 -844 0
-609 608 0
-609 844 0
610 -932 -607 0
-610 932 0
-610 607 0
611 -48 -16 0
-611 48 0
-611 16 0
612 -611 -24 0
-612 611 0
-612 24 0
613 -933 -610 0
-613 933 0
-613 610 0
614 -49 -12 0
-614 49 0
-614 12 0
615 -614 -7 0
-615 614 0
-615 7 0
616 -934 -613 0
-616 934 0
-616 613 0
617 -30 -731 0
-617 30 0
-617 731 0
618 -617 -41 0
-618 617 0
-618 41 0
619 -935 -616 0
-619 935 0
-619 616 0
620 -775 -706 0
-620 775 0
-620 706 0
621 -620 -696 0
-621 620 0
-621 696 0
622 -936 -619 0
-622 936 0
-622 619 0
623 -756 -742 0
-623 756 0
-623 742 0
624 -623 -40 0
-624 623 0
-624 40 0
625 -937 -622 0
-625 937 0
-625 622 0
626 -734 -4 0
-626 734 0
-626 4 0
627 -626 -24 0
-627 626 0
-627 24 0
628 -938 -625 0
-628 938 0
-628 625 0
629 -37 -694 0
-629 37 0
-629 694 0
630 -629 -16 0
-630 629 0
-630 16 0
631 -939 -628 0
-631 939 0
-631 628 0
632 -19 -1 0
-632 19 0
-632 1 0
633 -632 -714 0
-633 632 0
-633 714 0
634 -940 -631 0
-634 940 0
-634 631 0
635 -759 -15 0
-635 759 0
-635 15 0
636 -635 -717 0
-636 635 0
-636 717 0
637 -941 -634 0
-637 941 0
-637 634 0
638 -22 -20 0
-638 22 0
-638 20 0
639 -638 -10 0
-639 638 0
-639 10 0
640 -942 -637 0
-640 942 0
-640 637 0
641 -719 -737 0
-641 719 0
-641 737 0
642 -641 -42 0
-642 641 0
-642 42 0
643 -943 -640 0
-643 943 0
-643 640 0
644 -311 -12 0
-644 311 0
-644 12 0
645 -944 -643 0
-645 944 0
-645 643 0
646 -722 -5 0
-646 722 0
-646 5 0
647 -646 -726 0
-647 646 0
-647 726 0
648 -945 -645 0
-648 945 0
-648 645 0
649 -50 -24 0
-649 50 0
-649 24 0
650 -649 -719 0
-650 649 0
-650 719 0
651 -946 -648 0
-651 946 0
-651 648 0
652 -709 -1 0
-652 709 0
-652 1 0
653 -652 -5 0
-653 652 0
-653 5 0
654 -947 -651 0
-654 947 0
-654 651 0
655 -35 -6 0
-655 35 0
-655 6 0
656 -655 -700 0
-656 655 0
-656 700 0
657 -948 -654 0
-657 948 0
-657 654 0
658 -714 -13 0
-658 714 0
-658 13 0
659 -658 -38 0
-659 658 0
-659 38 0
660 -949 -657 0
-660 949 0
-660 657 0
661 -36 -1 0
-661 36 0
-661 1 0
662 -661 -18 0
-662 661 0
-662 18 0
663 -950 -660 0
-663 950 0
-663 660 0
664 -46 -14 0
-664 46 0
-664 14 0
665 -664 -7 0
-665 664 0
-665 7 0
666 -951 -663 0
-666 951 0
-666 663 0
667 -756 -696 0
-667 756 0
-667 696 0
668 -667 -714 0
-668 667 0
-668 714 0
669 -952 -666 0
-669 952 0
-669 666 0
670 -43 -1 0
-670 43 0
-670 1 0
671 -670 -717 0
-671 670 0
-671 717 0
672 -953 -669 0
-672 953 0
-672 669 0
673 -50 -17 0
-673 50 0
-673 17 0
674 -673 -778 0
-674 673 0
-674 778 0
675 -954 -672 0
-675 954 0
-675 672 0
676 -35 -16 0
-676 35 0
-676 16 0
677 -676 -48 0
-677 676 0
-677 48 0
678 -955 -675 0
-678 955 0
-678 675 0
679 -696 -2 0
-679 696 0
-679 2 0
680 -679 -41 0
-680 679 0
-680 41 0
681 -956 -678 0
-681 956 0
-681 678 0
682 -32 -27 0
-682 32 0
-682 27 0
683 -682 -3 0
-683 682 0
-683 3 0
684 -957 -681 0
-684 957 0
-684 681 0
685 -731 -3 0
-685 731 0
-685 3 0
686 -685 -764 0
-686 685 0
-686 764 0
687 -958 -684 0
-687 958 0
-687 684 0
688 -706 -12 0
-688 706 0
-688 12 0
689 -688 -719 0
-689 688 0
-689 719 0
690 -959 -687 0
-690 959 0
-690 687 0
691 -49 -17 0
-691 49 0
-691 17 0
692 -691 -705 0
-692 691 0
-692 705 0
693 -960 -690 0
-693 960 0
-693 690 0
-694 -4 0
694 4 0
-695 -2 0
695 2 0
-696 -5 0
696 5 0
-697 -54 0
697 54 0
-698 -52 0
698 52 0
-699 -6 0
699 6 0
-700 -7 0
700 7 0
-701 -57 0
701 57 0
-702 -60 0
702 60 0
-703 -11 0
703 11 0
-704 -63 0
704 63 0
-705 -12 0
705 12 0
-706 -13 0
706 13 0
-707 -66 0
707 66 0
-708 -14 0
708 14 0
-709 -9 0
709 9 0
-710 -69 0
710 69 0
-711 -17 0
711 17 0
-712 -72 0
712 72 0
-713 -75 0
713 75 0
-714 -21 0
714 21 0
-715 -78 0
715 78 0
-716 -22 0
716 22 0
-717 -24 0
717 24 0
-718 -81 0
718 81 0
-719 -25 0
719 25 0
-720 -84 0
720 84 0
-721 -87 0
721 87 0
-722 -27 0
722 27 0
-723 -90 0
723 90 0
-724 -28 0
724 28 0
-725 -93 0
725 93 0
-726 -29 0
726 29 0
-727 -30 0
727 30 0
-728 -96 0
728 96 0
-729 -99 0
729 99 0
-730 -31 0
730 31 0
-731 -8 0
731 8 0
-732 -102 0
732 102 0
-733 -105 0
733 105 0
-734 -34 0
734 34 0
-735 -108 0
735 108 0
-736 -35 0
736 35 0
-737 -23 0
737 23 0
-738 -111 0
738 111 0
-739 -114 0
739 114 0
-740 -19 0
740 19 0
-741 -117 0
741 117 0
-742 -38 0
742 38 0
-743 -120 0
743 120 0
-744 -39 0
744 39 0
-745 -40 0
745 40 0
-746 -123 0
746 123 0
-747 -126 0
747 126 0
-748 -129 0
748 129 0
-749 -132 0
749 132 0
-750 -135 0
750 135 0
-751 -138 0
751 138 0
-752 -141 0
752 141 0
-753 -144 0
753 144 0
-754 -18 0
754 18 0
-755 -147 0
755 147 0
-756 -43 0
756 43 0
-757 -20 0
757 20 0
-758 -150 0
758 150 0
-759 -44 0
759 44 0
-760 -153 0
760 153 0
-761 -156 0
761 156 0
-762 -159 0
762 159 0
-763 -46 0
763 46 0
-764 -15 0
764 15 0
-765 -162 0
765 162 0
-766 -165 0
766 165 0
-767 -168 0
767 168 0
-768 -47 0
768 47 0
-769 -171 0
769 171 0
-770 -174 0
770 174 0
-771 -177 0
771 177 0
-772 -41 0
772 41 0
-773 -42 0
773 42 0
-774 -180 0
774 180 0
-775 -16 0
775 16 0
-776 -183 0
776 183 0
-777 -186 0
777 186 0
-778 -33 0
778 33 0
-779 -189 0
779 189 0
-780 -192 0
780 192 0
-781 -195 0
781 195 0
-782 -32 0
782 32 0
-783 -1 0
783 1 0
-784 -198 0
784 198 0
-785 -201 0
785 201 0
-786 -204 0
786 204 0
-787 -207 0
787 207 0
-788 -210 0
788 210 0
-789 -213 0
789 213 0
-790 -216 0
790 216 0
-791 -219 0
791 219 0
-792 -222 0
792 222 0
-793 -225 0
793 225 0
-794 -49 0
794 49 0
-795 -228 0
795 228 0
-796 -231 0
796 231 0
-797 -234 0
797 234 0
-798 -237 0
798 237 0
-799 -240 0
799 240 0
-800 -243 0
800 243 0
-801 -246 0
801 246 0
-802 -249 0
802 249 0
-803 -252 0
803 252 0
-804 -255 0
804 255 0
-805 -258 0
805 258 0
-806 -37 0
806 37 0
-807 -261 0
807 261 0
-808 -264 0
808 264 0
-809 -267 0
809 267 0
-810 -269 0
810 269 0
-811 -272 0
811 272 0
-812 -274 0
812 274 0
-813 -277 0
813 277 0
-814 -48 0
814 48 0
-815 -280 0
815 280 0
-816 -283 0
816 283 0
-817 -286 0
817 286 0
-818 -289 0
818 289 0
-819 -292 0
819 292 0
-820 -295 0
820 295 0
-821 -297 0
821 297 0
-822 -300 0
822 300 0
-823 -303 0
823 303 0
-824 -306 0
824 306 0
-825 -36 0
825 36 0
-826 -309 0
826 309 0
-827 -312 0
827 312 0
-828 -314 0
828 314 0
-829 -317 0
829 317 0
-830 -320 0
830 320 0
-831 -323 0
831 323 0
-832 -326 0
832 326 0
-833 -329 0
833 329 0
-834 -332 0
834 332 0
-835 -335 0
835 335 0
-836 -338 0
836 338 0
-837 -341 0
837 341 0
-838 -26 0
838 26 0
-839 -344 0
839 344 0
-840 -347 0
840 347 0
-841 -350 0
841 350 0
-842 -353 0
842 353 0
-843 -356 0
843 356 0
-844 -3 0
844 3 0
-845 -359 0
845 359 0
-846 -362 0
846 362 0
-847 -365 0
847 365 0
-848 -368 0
848 368 0
-849 -371 0
849 371 0
-850 -374 0
850 374 0
-851 -377 0
851 377 0
-852 -380 0
852 380 0
-853 -383 0
853 383 0
-854 -385 0
854 385 0
-855 -45 0
855 45 0
-856 -388 0
856 388 0
-857 -391 0
857 391 0
-858 -394 0
858 394 0
-859 -397 0
859 397 0
-860 -400 0
860 400 0
-861 -10 0
861 10 0
-862 -403 0
862 403 0
-863 -406 0
863 406 0
-864 -409 0
864 409 0
-865 -412 0
865 412 0
-866 -415 0
866 415 0
-867 -418 0
867 418 0
-868 -421 0
868 421 0
-869 -424 0
869 424 0
-870 -427 0
870 427 0
-871 -430 0
871 430 0
-872 -433 0
872 433 0
-873 -436 0
873 436 0
-874 -439 0
874 439 0
-875 -442 0
875 442 0
-876 -445 0
876 445 0
-877 -447 0
877 447 0
-878 -450 0
878 450 0
-879 -452 0
879 452 0
-880 -455 0
880 455 0
-881 -458 0
881 458 0
-882 -460 0
882 460 0
-883 -463 0
883 463 0
-884 -466 0
884 466 0
-885 -469 0
885 469 0
-886 -472 0
886 472 0
-887 -475 0
887 475 0
-888 -478 0
888 478 0
-889 -481 0
889 481 0
-890 -484 0
890 484 0
-891 -487 0
891 487 0
-892 -490 0
892 490 0
-893 -493 0
893 493 0
-894 -496 0
894 496 0
-895 -499 0
895 499 0
-896 -502 0
896 502 0
-897 -505 0
897 505 0
-898 -508 0
898 508 0
-899 -511 0
899 511 0
-900 -514 0
900 514 0
-901 -517 0
901 517 0
-902 -520 0
902 520 0
-903 -523 0
903 523 0
-904 -526 0
904 526 0
-905 -528 0
905 528 0
-906 -531 0
906 531 0
-907 -534 0
907 534 0
-908 -537 0
908 537 0
-909 -540 0
909 540 0
-910 -543 0
910 543 0
-911 -546 0
911 546 0
-912 -549 0
912 549 0
-913 -552 0
913 552 0
-914 -555 0
914 555 0
-915 -558 0
915 558 0
-916 -561 0
916 561 0
-917 -564 0
917 564 0
-918 -567 0
918 567 0
-919 -570 0
919 570 0
-920 -573 0
920 573 0
-921 -576 0
921 576 0
-922 -579 0
922 579 0
-923 -582 0
923 582 0
-924 -585 0
924 585 0
-925 -588 0
925 588 0
-926 -591 0
926 591 0
-927 -594 0
927 594 0
-928 -597 0
928 597 0
-929 -600 0
929 600 0
-930 -603 0
930 603 0
-931 -606 0
931 606 0
-932 -609 0
932 609 0
-933 -612 0
933 612 0
-934 -615 0
934 615 0
-935 -618 0
935 618 0
-936 -621 0
936 621 0
-937 -624 0
937 624 0
-938 -627 0
938 627 0
-939 -630 0
939 630 0
-940 -633 0
940 633 0
-941 -636 0
941 636 0
-942 -639 0
942 639 0
-943 -642 0
943 642 0
-944 -644 0
944 644 0
-945 -647 0
945 647 0
-946 -650 0
946 650 0
-947 -653 0
947 653 0
-948 -656 0
948 656 0
-949 -659 0
949 659 0
-950 -662 0
950 662 0
-951 -665 0
951 665 0
-952 -668 0
952 668 0
-953 -671 0
953 671 0
-954 -674 0
954 674 0
-955 -677 0
955 677 0
-956 -680 0
956 680 0
-957 -683 0
957 683 0
-958 -686 0
958 686 0
-959 -689 0
959 689 0
-960 -692 0
960 692 0
693 0
